p tw 157 463
0 1
0 2
0 3
0 62
0 100
1 2
1 3
1 44
1 63
1 101
1 111
1 132
2 3
2 45
3 42
3 128
4 5
4 39
4 40
4 41
4 42
4 43
4 44
4 45
4 46
5 20
5 92
5 156
6 7
6 8
6 68
6 77
6 78
6 79
7 8
7 69
7 122
7 152
7 153
7 154
8 66
8 67
9 10
9 71
9 72
10 139
11 12
11 13
11 14
11 37
11 38
12 13
12 14
12 30
12 49
12 112
12 130
12 131
13 14
13 73
13 74
13 75
14 113
14 117
15 16
15 32
15 33
16 50
16 51
16 52
16 53
16 54
17 18
17 141
18 46
18 90
18 91
18 92
18 93
19 20
19 21
19 91
20 21
20 92
20 156
21 93
22 23
22 24
22 25
22 26
22 27
22 107
22 133
23 24
23 25
23 26
23 27
23 94
23 124
24 25
24 26
24 27
24 55
24 56
25 26
25 27
25 48
25 81
25 126
25 140
26 27
26 47
26 82
26 95
26 96
26 97
27 80
27 125
28 29
28 30
28 31
28 60
28 61
29 30
29 31
29 127
30 31
30 49
30 112
30 130
30 131
31 149
32 33
32 50
32 123
32 142
33 51
33 118
33 119
34 35
34 36
34 85
34 106
34 110
34 134
34 135
35 36
35 52
35 57
35 58
35 59
36 54
36 87
36 109
37 38
37 49
38 64
38 75
38 117
38 131
39 40
39 41
39 42
39 43
39 44
39 45
39 46
39 150
39 156
40 41
40 42
40 43
40 44
40 45
40 46
40 116
40 129
40 134
40 136
40 137
40 138
41 42
41 43
41 44
41 45
41 46
41 147
42 43
42 44
42 45
42 46
42 128
43 44
43 45
43 46
43 76
44 45
44 46
44 63
44 101
44 111
44 132
45 46
46 90
46 91
46 92
46 93
47 48
47 82
47 95
47 96
47 97
48 81
48 126
48 140
49 112
49 130
49 131
50 51
50 52
50 53
50 54
50 123
50 142
51 52
51 53
51 54
51 118
51 119
52 53
52 54
52 57
52 58
52 59
53 54
53 86
54 87
54 109
55 56
55 97
55 124
55 125
55 126
56 94
57 58
57 59
57 71
57 109
57 110
58 59
58 85
59 86
59 87
60 61
60 127
60 130
60 149
61 112
62 63
62 100
63 101
63 111
63 132
64 65
64 75
64 117
64 131
65 73
65 113
65 114
65 115
65 116
66 67
66 77
66 103
66 154
66 155
67 79
67 102
67 120
67 121
67 122
68 69
68 70
68 77
68 78
68 79
69 70
69 122
69 152
69 153
69 154
70 148
71 72
71 109
71 110
72 95
72 99
72 139
73 74
73 75
73 113
73 114
73 115
73 116
74 75
74 104
74 105
75 117
75 131
76 128
76 129
77 78
77 79
77 103
77 154
77 155
78 79
78 148
78 153
79 102
79 120
79 121
79 122
80 81
80 82
80 125
81 82
81 126
81 140
82 95
82 96
82 97
83 84
83 111
84 132
85 106
85 110
85 134
85 135
86 87
87 109
88 89
88 105
88 121
88 151
89 104
90 91
90 92
90 93
90 141
91 92
91 93
92 93
92 156
94 124
95 96
95 97
95 99
95 139
96 97
96 140
97 124
97 125
97 126
98 99
98 106
98 107
98 108
99 139
100 101
101 111
101 132
102 103
102 120
102 121
102 122
103 154
103 155
104 105
105 121
105 151
106 107
106 108
106 110
106 134
106 135
107 108
107 133
108 136
109 110
110 134
110 135
111 132
112 130
112 131
113 114
113 115
113 116
113 117
114 115
114 116
114 146
115 116
115 143
115 144
115 145
116 129
116 134
116 136
116 137
116 138
117 131
118 119
118 123
119 142
120 121
120 122
120 155
121 122
121 151
122 152
122 153
122 154
123 142
124 125
124 126
125 126
126 140
127 130
127 149
128 129
129 134
129 136
129 137
129 138
130 131
130 149
133 135
134 135
134 136
134 137
134 138
136 137
136 138
137 138
137 147
137 150
138 145
143 144
143 145
143 146
143 152
144 145
144 151
146 152
147 150
148 153
150 156
152 153
152 154
153 154
154 155
